# Solution for model Transporte com Transbordo
# Objective value = 4.7434164902525691e+02
X_1_4_10 0
X_1_5_10 0
X_2_4_10 0
X_2_5_10 0
X_3_4_10 0
X_3_5_10 0
X_4_6_10 0
X_4_7_10 0
X_4_8_10 0
X_4_9_10 0
X_5_6_10 0
X_5_7_10 0
X_5_8_10 0
X_5_9_10 0
X_1_6_10 0
X_1_7_10 0
X_1_8_10 0
X_1_9_10 1
X_2_6_10 0
X_2_7_10 0
X_2_8_10 0
X_2_9_10 0
X_3_6_10 0
X_3_7_10 0
X_3_8_10 0
X_3_9_10 0
y1 0
y2 1
